c nIsolatedPIs 0
c maxPI 20
p cnf 320 901
c gate 21 3 16 0
3 -21 0
16 -21 0
-3 -16 21 0
c gate 22 4 15 0
4 -22 0
15 -22 0
-4 -15 22 0
c gate 23 5 14 0
5 -23 0
14 -23 0
-5 -14 23 0
c gate 24 -22 -23 0
-22 -24 0
-23 -24 0
22 23 24 0
c gate 25 22 23 0
22 -25 0
23 -25 0
-22 -23 25 0
c gate 26 -24 -25 0
-24 -26 0
-25 -26 0
24 25 26 0
c gate 27 -21 -26 0
-21 -27 0
-26 -27 0
21 26 27 0
c gate 28 21 26 0
21 -28 0
26 -28 0
-21 -26 28 0
c gate 29 -27 -28 0
-27 -29 0
-28 -29 0
27 28 29 0
c gate 30 6 13 0
6 -30 0
13 -30 0
-6 -13 30 0
c gate 31 7 12 0
7 -31 0
12 -31 0
-7 -12 31 0
c gate 32 8 11 0
8 -32 0
11 -32 0
-8 -11 32 0
c gate 33 -31 -32 0
-31 -33 0
-32 -33 0
31 32 33 0
c gate 34 31 32 0
31 -34 0
32 -34 0
-31 -32 34 0
c gate 35 -33 -34 0
-33 -35 0
-34 -35 0
33 34 35 0
c gate 36 30 35 0
30 -36 0
35 -36 0
-30 -35 36 0
c gate 37 -30 -35 0
-30 -37 0
-35 -37 0
30 35 37 0
c gate 38 -36 -37 0
-36 -38 0
-37 -38 0
36 37 38 0
c gate 39 6 12 0
6 -39 0
12 -39 0
-6 -12 39 0
c gate 40 7 11 0
7 -40 0
11 -40 0
-7 -11 40 0
c gate 41 -39 -40 0
-39 -41 0
-40 -41 0
39 40 41 0
c gate 42 39 40 0
39 -42 0
40 -42 0
-39 -40 42 0
c gate 43 -41 -42 0
-41 -43 0
-42 -43 0
41 42 43 0
c gate 44 5 13 0
5 -44 0
13 -44 0
-5 -13 44 0
c gate 45 43 -44 0
43 -45 0
-44 -45 0
-43 44 45 0
c gate 46 -41 -45 0
-41 -46 0
-45 -46 0
41 45 46 0
c gate 47 38 46 0
38 -47 0
46 -47 0
-38 -46 47 0
c gate 48 -38 -46 0
-38 -48 0
-46 -48 0
38 46 48 0
c gate 49 -47 -48 0
-47 -49 0
-48 -49 0
47 48 49 0
c gate 50 -29 -49 0
-29 -50 0
-49 -50 0
29 49 50 0
c gate 51 29 49 0
29 -51 0
49 -51 0
-29 -49 51 0
c gate 52 -50 -51 0
-50 -52 0
-51 -52 0
50 51 52 0
c gate 53 5 12 0
5 -53 0
12 -53 0
-5 -12 53 0
c gate 54 6 11 0
6 -54 0
11 -54 0
-6 -11 54 0
c gate 55 53 54 0
53 -55 0
54 -55 0
-53 -54 55 0
c gate 56 4 13 0
4 -56 0
13 -56 0
-4 -13 56 0
c gate 57 -53 -54 0
-53 -57 0
-54 -57 0
53 54 57 0
c gate 58 -55 -57 0
-55 -58 0
-57 -58 0
55 57 58 0
c gate 59 56 58 0
56 -59 0
58 -59 0
-56 -58 59 0
c gate 60 -55 -59 0
-55 -60 0
-59 -60 0
55 59 60 0
c gate 61 -43 44 0
-43 -61 0
44 -61 0
43 -44 61 0
c gate 62 -45 -61 0
-45 -62 0
-61 -62 0
45 61 62 0
c gate 63 60 62 0
60 -63 0
62 -63 0
-60 -62 63 0
c gate 64 -60 -62 0
-60 -64 0
-62 -64 0
60 62 64 0
c gate 65 -63 -64 0
-63 -65 0
-64 -65 0
63 64 65 0
c gate 66 2 16 0
2 -66 0
16 -66 0
-2 -16 66 0
c gate 67 3 15 0
3 -67 0
15 -67 0
-3 -15 67 0
c gate 68 4 14 0
4 -68 0
14 -68 0
-4 -14 68 0
c gate 69 -67 -68 0
-67 -69 0
-68 -69 0
67 68 69 0
c gate 70 67 68 0
67 -70 0
68 -70 0
-67 -68 70 0
c gate 71 -69 -70 0
-69 -71 0
-70 -71 0
69 70 71 0
c gate 72 66 71 0
66 -72 0
71 -72 0
-66 -71 72 0
c gate 73 -66 -71 0
-66 -73 0
-71 -73 0
66 71 73 0
c gate 74 -72 -73 0
-72 -74 0
-73 -74 0
72 73 74 0
c gate 75 65 -74 0
65 -75 0
-74 -75 0
-65 74 75 0
c gate 76 -63 -75 0
-63 -76 0
-75 -76 0
63 75 76 0
c gate 77 52 76 0
52 -77 0
76 -77 0
-52 -76 77 0
c gate 78 1 18 0
1 -78 0
18 -78 0
-1 -18 78 0
c gate 79 2 17 0
2 -79 0
17 -79 0
-2 -17 79 0
c gate 80 -78 -79 0
-78 -80 0
-79 -80 0
78 79 80 0
c gate 81 78 79 0
78 -81 0
79 -81 0
-78 -79 81 0
c gate 82 -80 -81 0
-80 -82 0
-81 -82 0
80 81 82 0
c gate 83 -70 -72 0
-70 -83 0
-72 -83 0
70 72 83 0
c gate 84 -82 83 0
-82 -84 0
83 -84 0
82 -83 84 0
c gate 85 82 -83 0
82 -85 0
-83 -85 0
-82 83 85 0
c gate 86 -84 -85 0
-84 -86 0
-85 -86 0
84 85 86 0
c gate 87 -52 -76 0
-52 -87 0
-76 -87 0
52 76 87 0
c gate 88 -77 -87 0
-77 -88 0
-87 -88 0
77 87 88 0
c gate 89 86 88 0
86 -89 0
88 -89 0
-86 -88 89 0
c gate 90 -77 -89 0
-77 -90 0
-89 -90 0
77 89 90 0
c gate 91 1 19 0
1 -91 0
19 -91 0
-1 -19 91 0
c gate 92 2 18 0
2 -92 0
18 -92 0
-2 -18 92 0
c gate 93 3 17 0
3 -93 0
17 -93 0
-3 -17 93 0
c gate 94 -92 -93 0
-92 -94 0
-93 -94 0
92 93 94 0
c gate 95 92 93 0
92 -95 0
93 -95 0
-92 -93 95 0
c gate 96 -94 -95 0
-94 -96 0
-95 -96 0
94 95 96 0
c gate 97 91 96 0
91 -97 0
96 -97 0
-91 -96 97 0
c gate 98 -91 -96 0
-91 -98 0
-96 -98 0
91 96 98 0
c gate 99 -97 -98 0
-97 -99 0
-98 -99 0
97 98 99 0
c gate 100 -25 -28 0
-25 -100 0
-28 -100 0
25 28 100 0
c gate 101 99 -100 0
99 -101 0
-100 -101 0
-99 100 101 0
c gate 102 -99 100 0
-99 -102 0
100 -102 0
99 -100 102 0
c gate 103 -101 -102 0
-101 -103 0
-102 -103 0
101 102 103 0
c gate 104 -81 -103 0
-81 -104 0
-103 -104 0
81 103 104 0
c gate 105 81 103 0
81 -105 0
103 -105 0
-81 -103 105 0
c gate 106 -104 -105 0
-104 -106 0
-105 -106 0
104 105 106 0
c gate 107 -47 -51 0
-47 -107 0
-51 -107 0
47 51 107 0
c gate 108 4 16 0
4 -108 0
16 -108 0
-4 -16 108 0
c gate 109 5 15 0
5 -109 0
15 -109 0
-5 -15 109 0
c gate 110 6 14 0
6 -110 0
14 -110 0
-6 -14 110 0
c gate 111 -109 -110 0
-109 -111 0
-110 -111 0
109 110 111 0
c gate 112 109 110 0
109 -112 0
110 -112 0
-109 -110 112 0
c gate 113 -111 -112 0
-111 -113 0
-112 -113 0
111 112 113 0
c gate 114 108 113 0
108 -114 0
113 -114 0
-108 -113 114 0
c gate 115 -108 -113 0
-108 -115 0
-113 -115 0
108 113 115 0
c gate 116 -114 -115 0
-114 -116 0
-115 -116 0
114 115 116 0
c gate 117 -34 -36 0
-34 -117 0
-36 -117 0
34 36 117 0
c gate 118 7 13 0
7 -118 0
13 -118 0
-7 -13 118 0
c gate 119 8 12 0
8 -119 0
12 -119 0
-8 -12 119 0
c gate 120 9 11 0
9 -120 0
11 -120 0
-9 -11 120 0
c gate 121 -119 -120 0
-119 -121 0
-120 -121 0
119 120 121 0
c gate 122 119 120 0
119 -122 0
120 -122 0
-119 -120 122 0
c gate 123 -121 -122 0
-121 -123 0
-122 -123 0
121 122 123 0
c gate 124 118 123 0
118 -124 0
123 -124 0
-118 -123 124 0
c gate 125 -118 -123 0
-118 -125 0
-123 -125 0
118 123 125 0
c gate 126 -124 -125 0
-124 -126 0
-125 -126 0
124 125 126 0
c gate 127 -117 126 0
-117 -127 0
126 -127 0
117 -126 127 0
c gate 128 117 -126 0
117 -128 0
-126 -128 0
-117 126 128 0
c gate 129 -127 -128 0
-127 -129 0
-128 -129 0
127 128 129 0
c gate 130 116 129 0
116 -130 0
129 -130 0
-116 -129 130 0
c gate 131 -116 -129 0
-116 -131 0
-129 -131 0
116 129 131 0
c gate 132 -130 -131 0
-130 -132 0
-131 -132 0
130 131 132 0
c gate 133 -107 132 0
-107 -133 0
132 -133 0
107 -132 133 0
c gate 134 107 -132 0
107 -134 0
-132 -134 0
-107 132 134 0
c gate 135 -133 -134 0
-133 -135 0
-134 -135 0
133 134 135 0
c gate 136 -106 -135 0
-106 -136 0
-135 -136 0
106 135 136 0
c gate 137 106 135 0
106 -137 0
135 -137 0
-106 -135 137 0
c gate 138 -136 -137 0
-136 -138 0
-137 -138 0
136 137 138 0
c gate 139 -90 138 0
-90 -139 0
138 -139 0
90 -138 139 0
c gate 140 90 -138 0
90 -140 0
-138 -140 0
-90 138 140 0
c gate 141 -139 -140 0
-139 -141 0
-140 -141 0
139 140 141 0
c gate 142 85 141 0
85 -142 0
141 -142 0
-85 -141 142 0
c gate 143 -139 -142 0
-139 -143 0
-142 -143 0
139 142 143 0
c gate 144 -101 -105 0
-101 -144 0
-105 -144 0
101 105 144 0
c gate 145 -133 -137 0
-133 -145 0
-137 -145 0
133 137 145 0
c gate 146 -95 -97 0
-95 -146 0
-97 -146 0
95 97 146 0
c gate 147 2 19 0
2 -147 0
19 -147 0
-2 -19 147 0
c gate 148 3 18 0
3 -148 0
18 -148 0
-3 -18 148 0
c gate 149 4 17 0
4 -149 0
17 -149 0
-4 -17 149 0
c gate 150 -148 -149 0
-148 -150 0
-149 -150 0
148 149 150 0
c gate 151 148 149 0
148 -151 0
149 -151 0
-148 -149 151 0
c gate 152 -150 -151 0
-150 -152 0
-151 -152 0
150 151 152 0
c gate 153 147 152 0
147 -153 0
152 -153 0
-147 -152 153 0
c gate 154 -147 -152 0
-147 -154 0
-152 -154 0
147 152 154 0
c gate 155 -153 -154 0
-153 -155 0
-154 -155 0
153 154 155 0
c gate 156 -112 -114 0
-112 -156 0
-114 -156 0
112 114 156 0
c gate 157 155 -156 0
155 -157 0
-156 -157 0
-155 156 157 0
c gate 158 -155 156 0
-155 -158 0
156 -158 0
155 -156 158 0
c gate 159 -157 -158 0
-157 -159 0
-158 -159 0
157 158 159 0
c gate 160 -146 159 0
-146 -160 0
159 -160 0
146 -159 160 0
c gate 161 146 -159 0
146 -161 0
-159 -161 0
-146 159 161 0
c gate 162 -160 -161 0
-160 -162 0
-161 -162 0
160 161 162 0
c gate 163 -127 -130 0
-127 -163 0
-130 -163 0
127 130 163 0
c gate 164 5 16 0
5 -164 0
16 -164 0
-5 -16 164 0
c gate 165 6 15 0
6 -165 0
15 -165 0
-6 -15 165 0
c gate 166 7 14 0
7 -166 0
14 -166 0
-7 -14 166 0
c gate 167 -165 -166 0
-165 -167 0
-166 -167 0
165 166 167 0
c gate 168 165 166 0
165 -168 0
166 -168 0
-165 -166 168 0
c gate 169 -167 -168 0
-167 -169 0
-168 -169 0
167 168 169 0
c gate 170 164 169 0
164 -170 0
169 -170 0
-164 -169 170 0
c gate 171 -164 -169 0
-164 -171 0
-169 -171 0
164 169 171 0
c gate 172 -170 -171 0
-170 -172 0
-171 -172 0
170 171 172 0
c gate 173 -122 -124 0
-122 -173 0
-124 -173 0
122 124 173 0
c gate 174 8 13 0
8 -174 0
13 -174 0
-8 -13 174 0
c gate 175 9 12 0
9 -175 0
12 -175 0
-9 -12 175 0
c gate 176 10 11 0
10 -176 0
11 -176 0
-10 -11 176 0
c gate 177 -175 -176 0
-175 -177 0
-176 -177 0
175 176 177 0
c gate 178 175 176 0
175 -178 0
176 -178 0
-175 -176 178 0
c gate 179 -177 -178 0
-177 -179 0
-178 -179 0
177 178 179 0
c gate 180 174 179 0
174 -180 0
179 -180 0
-174 -179 180 0
c gate 181 -174 -179 0
-174 -181 0
-179 -181 0
174 179 181 0
c gate 182 -180 -181 0
-180 -182 0
-181 -182 0
180 181 182 0
c gate 183 -173 182 0
-173 -183 0
182 -183 0
173 -182 183 0
c gate 184 173 -182 0
173 -184 0
-182 -184 0
-173 182 184 0
c gate 185 -183 -184 0
-183 -185 0
-184 -185 0
183 184 185 0
c gate 186 172 185 0
172 -186 0
185 -186 0
-172 -185 186 0
c gate 187 -172 -185 0
-172 -187 0
-185 -187 0
172 185 187 0
c gate 188 -186 -187 0
-186 -188 0
-187 -188 0
186 187 188 0
c gate 189 -163 188 0
-163 -189 0
188 -189 0
163 -188 189 0
c gate 190 163 -188 0
163 -190 0
-188 -190 0
-163 188 190 0
c gate 191 -189 -190 0
-189 -191 0
-190 -191 0
189 190 191 0
c gate 192 162 191 0
162 -192 0
191 -192 0
-162 -191 192 0
c gate 193 -162 -191 0
-162 -193 0
-191 -193 0
162 191 193 0
c gate 194 -192 -193 0
-192 -194 0
-193 -194 0
192 193 194 0
c gate 195 -145 194 0
-145 -195 0
194 -195 0
145 -194 195 0
c gate 196 145 -194 0
145 -196 0
-194 -196 0
-145 194 196 0
c gate 197 -195 -196 0
-195 -197 0
-196 -197 0
195 196 197 0
c gate 198 144 -197 0
144 -198 0
-197 -198 0
-144 197 198 0
c gate 199 -144 197 0
-144 -199 0
197 -199 0
144 -197 199 0
c gate 200 -198 -199 0
-198 -200 0
-199 -200 0
198 199 200 0
c gate 201 -143 200 0
-143 -201 0
200 -201 0
143 -200 201 0
c gate 202 1 20 0
1 -202 0
20 -202 0
-1 -20 202 0
c gate 203 143 -200 0
143 -203 0
-200 -203 0
-143 200 203 0
c gate 204 -201 -203 0
-201 -204 0
-203 -204 0
201 203 204 0
c gate 205 202 204 0
202 -205 0
204 -205 0
-202 -204 205 0
c gate 206 -201 -205 0
-201 -206 0
-205 -206 0
201 205 206 0
c gate 207 2 20 0
2 -207 0
20 -207 0
-2 -20 207 0
c gate 208 -195 -199 0
-195 -208 0
-199 -208 0
195 199 208 0
c gate 209 -157 -160 0
-157 -209 0
-160 -209 0
157 160 209 0
c gate 210 -189 -192 0
-189 -210 0
-192 -210 0
189 192 210 0
c gate 211 -151 -153 0
-151 -211 0
-153 -211 0
151 153 211 0
c gate 212 3 19 0
3 -212 0
19 -212 0
-3 -19 212 0
c gate 213 4 18 0
4 -213 0
18 -213 0
-4 -18 213 0
c gate 214 5 17 0
5 -214 0
17 -214 0
-5 -17 214 0
c gate 215 -213 -214 0
-213 -215 0
-214 -215 0
213 214 215 0
c gate 216 213 214 0
213 -216 0
214 -216 0
-213 -214 216 0
c gate 217 -215 -216 0
-215 -217 0
-216 -217 0
215 216 217 0
c gate 218 212 217 0
212 -218 0
217 -218 0
-212 -217 218 0
c gate 219 -212 -217 0
-212 -219 0
-217 -219 0
212 217 219 0
c gate 220 -218 -219 0
-218 -220 0
-219 -220 0
218 219 220 0
c gate 221 -168 -170 0
-168 -221 0
-170 -221 0
168 170 221 0
c gate 222 220 -221 0
220 -222 0
-221 -222 0
-220 221 222 0
c gate 223 -220 221 0
-220 -223 0
221 -223 0
220 -221 223 0
c gate 224 -222 -223 0
-222 -224 0
-223 -224 0
222 223 224 0
c gate 225 -211 224 0
-211 -225 0
224 -225 0
211 -224 225 0
c gate 226 211 -224 0
211 -226 0
-224 -226 0
-211 224 226 0
c gate 227 -225 -226 0
-225 -227 0
-226 -227 0
225 226 227 0
c gate 228 -183 -186 0
-183 -228 0
-186 -228 0
183 186 228 0
c gate 229 6 16 0
6 -229 0
16 -229 0
-6 -16 229 0
c gate 230 7 15 0
7 -230 0
15 -230 0
-7 -15 230 0
c gate 231 8 14 0
8 -231 0
14 -231 0
-8 -14 231 0
c gate 232 -230 -231 0
-230 -232 0
-231 -232 0
230 231 232 0
c gate 233 230 231 0
230 -233 0
231 -233 0
-230 -231 233 0
c gate 234 -232 -233 0
-232 -234 0
-233 -234 0
232 233 234 0
c gate 235 229 234 0
229 -235 0
234 -235 0
-229 -234 235 0
c gate 236 -229 -234 0
-229 -236 0
-234 -236 0
229 234 236 0
c gate 237 -235 -236 0
-235 -237 0
-236 -237 0
235 236 237 0
c gate 238 -178 -180 0
-178 -238 0
-180 -238 0
178 180 238 0
c gate 239 10 12 0
10 -239 0
12 -239 0
-10 -12 239 0
c gate 240 9 13 0
9 -240 0
13 -240 0
-9 -13 240 0
c gate 241 -239 -240 0
-239 -241 0
-240 -241 0
239 240 241 0
c gate 242 239 240 0
239 -242 0
240 -242 0
-239 -240 242 0
c gate 243 -241 -242 0
-241 -243 0
-242 -243 0
241 242 243 0
c gate 244 -238 243 0
-238 -244 0
243 -244 0
238 -243 244 0
c gate 245 238 -243 0
238 -245 0
-243 -245 0
-238 243 245 0
c gate 246 -244 -245 0
-244 -246 0
-245 -246 0
244 245 246 0
c gate 247 237 246 0
237 -247 0
246 -247 0
-237 -246 247 0
c gate 248 -237 -246 0
-237 -248 0
-246 -248 0
237 246 248 0
c gate 249 -247 -248 0
-247 -249 0
-248 -249 0
247 248 249 0
c gate 250 -228 249 0
-228 -250 0
249 -250 0
228 -249 250 0
c gate 251 228 -249 0
228 -251 0
-249 -251 0
-228 249 251 0
c gate 252 -250 -251 0
-250 -252 0
-251 -252 0
250 251 252 0
c gate 253 227 252 0
227 -253 0
252 -253 0
-227 -252 253 0
c gate 254 -227 -252 0
-227 -254 0
-252 -254 0
227 252 254 0
c gate 255 -253 -254 0
-253 -255 0
-254 -255 0
253 254 255 0
c gate 256 -210 255 0
-210 -256 0
255 -256 0
210 -255 256 0
c gate 257 210 -255 0
210 -257 0
-255 -257 0
-210 255 257 0
c gate 258 -256 -257 0
-256 -258 0
-257 -258 0
256 257 258 0
c gate 259 -209 258 0
-209 -259 0
258 -259 0
209 -258 259 0
c gate 260 209 -258 0
209 -260 0
-258 -260 0
-209 258 260 0
c gate 261 -259 -260 0
-259 -261 0
-260 -261 0
259 260 261 0
c gate 262 -208 261 0
-208 -262 0
261 -262 0
208 -261 262 0
c gate 263 208 -261 0
208 -263 0
-261 -263 0
-208 261 263 0
c gate 264 -262 -263 0
-262 -264 0
-263 -264 0
262 263 264 0
c gate 265 -207 -264 0
-207 -265 0
-264 -265 0
207 264 265 0
c gate 266 207 264 0
207 -266 0
264 -266 0
-207 -264 266 0
c gate 267 -265 -266 0
-265 -267 0
-266 -267 0
265 266 267 0
c gate 268 -206 267 0
-206 -268 0
267 -268 0
206 -267 268 0
c gate 269 206 -267 0
206 -269 0
-267 -269 0
-206 267 269 0
c gate 270 -202 -204 0
-202 -270 0
-204 -270 0
202 204 270 0
c gate 271 -56 -58 0
-56 -271 0
-58 -271 0
56 58 271 0
c gate 272 -59 -271 0
-59 -272 0
-271 -272 0
59 271 272 0
c gate 273 4 12 0
4 -273 0
12 -273 0
-4 -12 273 0
c gate 274 5 11 0
5 -274 0
11 -274 0
-5 -11 274 0
c gate 275 -273 -274 0
-273 -275 0
-274 -275 0
273 274 275 0
c gate 276 3 13 0
3 -276 0
13 -276 0
-3 -13 276 0
c gate 277 273 274 0
273 -277 0
274 -277 0
-273 -274 277 0
c gate 278 -275 -277 0
-275 -278 0
-277 -278 0
275 277 278 0
c gate 279 -276 278 0
-276 -279 0
278 -279 0
276 -278 279 0
c gate 280 -275 -279 0
-275 -280 0
-279 -280 0
275 279 280 0
c gate 281 272 280 0
272 -281 0
280 -281 0
-272 -280 281 0
c gate 282 1 16 0
1 -282 0
16 -282 0
-1 -16 282 0
c gate 283 2 15 0
2 -283 0
15 -283 0
-2 -15 283 0
c gate 284 3 14 0
3 -284 0
14 -284 0
-3 -14 284 0
c gate 285 -283 -284 0
-283 -285 0
-284 -285 0
283 284 285 0
c gate 286 283 284 0
283 -286 0
284 -286 0
-283 -284 286 0
c gate 287 -285 -286 0
-285 -287 0
-286 -287 0
285 286 287 0
c gate 288 282 287 0
282 -288 0
287 -288 0
-282 -287 288 0
c gate 289 -282 -287 0
-282 -289 0
-287 -289 0
282 287 289 0
c gate 290 -288 -289 0
-288 -290 0
-289 -290 0
288 289 290 0
c gate 291 -272 -280 0
-272 -291 0
-280 -291 0
272 280 291 0
c gate 292 -281 -291 0
-281 -292 0
-291 -292 0
281 291 292 0
c gate 293 290 292 0
290 -293 0
292 -293 0
-290 -292 293 0
c gate 294 -281 -293 0
-281 -294 0
-293 -294 0
281 293 294 0
c gate 295 -65 74 0
-65 -295 0
74 -295 0
65 -74 295 0
c gate 296 -75 -295 0
-75 -296 0
-295 -296 0
75 295 296 0
c gate 297 -294 -296 0
-294 -297 0
-296 -297 0
294 296 297 0
c gate 298 294 296 0
294 -298 0
296 -298 0
-294 -296 298 0
c gate 299 -297 -298 0
-297 -299 0
-298 -299 0
297 298 299 0
c gate 300 1 17 0
1 -300 0
17 -300 0
-1 -17 300 0
c gate 301 -286 -288 0
-286 -301 0
-288 -301 0
286 288 301 0
c gate 302 300 -301 0
300 -302 0
-301 -302 0
-300 301 302 0
c gate 303 -300 301 0
-300 -303 0
301 -303 0
300 -301 303 0
c gate 304 -302 -303 0
-302 -304 0
-303 -304 0
302 303 304 0
c gate 305 299 304 0
299 -305 0
304 -305 0
-299 -304 305 0
c gate 306 -297 -305 0
-297 -306 0
-305 -306 0
297 305 306 0
c gate 307 -86 -88 0
-86 -307 0
-88 -307 0
86 88 307 0
c gate 308 -89 -307 0
-89 -308 0
-307 -308 0
89 307 308 0
c gate 309 -306 308 0
-306 -309 0
308 -309 0
306 -308 309 0
c gate 310 306 -308 0
306 -310 0
-308 -310 0
-306 308 310 0
c gate 311 -309 -310 0
-309 -311 0
-310 -311 0
309 310 311 0
c gate 312 302 311 0
302 -312 0
311 -312 0
-302 -311 312 0
c gate 313 -309 -312 0
-309 -313 0
-312 -313 0
309 312 313 0
c gate 314 -85 -141 0
-85 -314 0
-141 -314 0
85 141 314 0
c gate 315 -142 -314 0
-142 -315 0
-314 -315 0
142 314 315 0
c gate 316 -313 315 0
-313 -316 0
315 -316 0
313 -315 316 0
c gate 317 -205 316 0
-205 -317 0
316 -317 0
205 -316 317 0
c gate 318 -270 317 0
-270 -318 0
317 -318 0
270 -317 318 0
c gate 319 -269 318 0
-269 -319 0
318 -319 0
269 -318 319 0
c gate 320 -268 319 0
-268 -320 0
319 -320 0
268 -319 320 0
c PO
320 0
